param n := 250;
param c := 150;
param : V : p w :=
   0	  83	  73
   1	  49	  39
   2	  59	  49
   3	  89	  79
   4	  64	  54
   5	  67	  57
   6	 108	  98
   7	  79	  69
   8	  77	  67
   9	  59	  49
  10	  48	  38
  11	  44	  34
  12	 106	  96
  13	  37	  27
  14	 102	  92
  15	  92	  82
  16	  79	  69
  17	  55	  45
  18	  79	  69
  19	  30	  20
  20	  85	  75
  21	 107	  97
  22	  61	  51
  23	  80	  70
  24	  39	  29
  25	 101	  91
  26	 108	  98
  27	  87	  77
  28	  58	  48
  29	  55	  45
  30	  53	  43
  31	  71	  61
  32	  46	  36
  33	  92	  82
  34	  99	  89
  35	 104	  94
  36	  36	  26
  37	  45	  35
  38	  68	  58
  39	  68	  58
  40	  67	  57
  41	  56	  46
  42	  54	  44
  43	 101	  91
  44	  59	  49
  45	  62	  52
  46	  75	  65
  47	  52	  42
  48	  43	  33
  49	  70	  60
  50	  47	  37
  51	  67	  57
  52	 101	  91
  53	  62	  52
  54	 105	  95
  55	  94	  84
  56	  82	  72
  57	  85	  75
  58	  99	  89
  59	  91	  81
  60	  77	  67
  61	  84	  74
  62	  97	  87
  63	  70	  60
  64	  42	  32
  65	  86	  76
  66	  95	  85
  67	  69	  59
  68	  72	  62
  69	  49	  39
  70	  74	  64
  71	  62	  52
  72	  98	  88
  73	  55	  45
  74	  39	  29
  75	  98	  88
  76	  95	  85
  77	  64	  54
  78	  50	  40
  79	  67	  57
  80	 101	  91
  81	  65	  55
  82	  70	  60
  83	  47	  37
  84	  96	  86
  85	  31	  21
  86	  31	  21
  87	  53	  43
  88	  87	  77
  89	  85	  75
  90	 102	  92
  91	  43	  33
  92	  69	  59
  93	  84	  74
  94	  50	  40
  95	  46	  36
  96	  72	  62
  97	  31	  21
  98	  66	  56
  99	  48	  38
 100	  32	  22
 101	  55	  45
 102	 104	  94
 103	  78	  68
 104	  93	  83
 105	  96	  86
 106	  85	  75
 107	  31	  21
 108	  50	  40
 109	  54	  44
 110	  84	  74
 111	  62	  52
 112	  71	  61
 113	 105	  95
 114	  30	  20
 115	  89	  79
 116	  86	  76
 117	  42	  32
 118	  31	  21
 119	 101	  91
 120	  93	  83
 121	  49	  39
 122	  41	  31
 123	  91	  81
 124	  51	  41
 125	 100	  90
 126	  84	  74
 127	 110	 100
 128	  48	  38
 129	  43	  33
 130	  84	  74
 131	  50	  40
 132	  90	  80
 133	  49	  39
 134	  32	  22
 135	  56	  46
 136	  68	  58
 137	  75	  65
 138	  77	  67
 139	  47	  37
 140	  92	  82
 141	  74	  64
 142	  36	  26
 143	  90	  80
 144	  84	  74
 145	  30	  20
 146	  72	  62
 147	  92	  82
 148	  50	  40
 149	  38	  28
 150	  82	  72
 151	  55	  45
 152	  72	  62
 153	  82	  72
 154	  99	  89
 155	  41	  31
 156	 102	  92
 157	  73	  63
 158	  99	  89
 159	  43	  33
 160	  35	  25
 161	  64	  54
 162	  76	  66
 163	 110	 100
 164	  30	  20
 165	 100	  90
 166	  97	  87
 167	  58	  48
 168	  38	  28
 169	  56	  46
 170	  86	  76
 171	  60	  50
 172	  76	  66
 173	  40	  30
 174	  36	  26
 175	  33	  23
 176	  50	  40
 177	  80	  70
 178	  67	  57
 179	 102	  92
 180	  62	  52
 181	  64	  54
 182	  37	  27
 183	  68	  58
 184	  76	  66
 185	  75	  65
 186	 103	  93
 187	  93	  83
 188	  47	  37
 189	  72	  62
 190	 104	  94
 191	  39	  29
 192	  76	  66
 193	 108	  98
 194	  30	  20
 195	  76	  66
 196	  52	  42
 197	  62	  52
 198	 100	  90
 199	  32	  22
 200	  40	  30
 201	  44	  34
 202	  75	  65
 203	  91	  81
 204	 100	  90
 205	  54	  44
 206	  98	  88
 207	  61	  51
 208	 107	  97
 209	  89	  79
 210	  68	  58
 211	  56	  46
 212	  75	  65
 213	  50	  40
 214	  78	  68
 215	  74	  64
 216	  44	  34
 217	  69	  59
 218	 109	  99
 219	  92	  82
 220	  96	  86
 221	  98	  88
 222	  62	  52
 223	  86	  76
 224	  86	  76
 225	  60	  50
 226	  61	  51
 227	 102	  92
 228	  69	  59
 229	  32	  22
 230	  70	  60
 231	  79	  69
 232	  55	  45
 233	  76	  66
 234	  60	  50
 235	  72	  62
 236	  69	  59
 237	 100	  90
 238	  64	  54
 239	  65	  55
 240	 102	  92
 241	  33	  23
 242	 107	  97
 243	  83	  73
 244	  49	  39
 245	  98	  88
 246	  44	  34
 247	 102	  92
 248	  84	  74
 249	 100	  90
;

set E :=
   0	   1
   0	  14
   0	  31
   0	  34
   0	  35
   0	  37
   0	  58
   0	  82
   0	 121
   0	 124
   0	 126
   0	 130
   0	 138
   0	 141
   0	 146
   0	 168
   0	 177
   0	 208
   0	 217
   0	 249
   1	   2
   1	  12
   1	  29
   1	  32
   1	  63
   1	  66
   1	  70
   1	  73
   1	  82
   1	  84
   1	  85
   1	  87
   1	 123
   1	 126
   1	 138
   1	 149
   1	 150
   1	 155
   1	 163
   1	 174
   1	 187
   1	 210
   1	 218
   1	 233
   1	 239
   1	 246
   2	  12
   2	  13
   2	  23
   2	  25
   2	  30
   2	  37
   2	  41
   2	  44
   2	  52
   2	  58
   2	  73
   2	  89
   2	 118
   2	 128
   2	 135
   2	 136
   2	 138
   2	 145
   2	 155
   2	 163
   2	 167
   2	 173
   2	 181
   2	 182
   2	 190
   2	 195
   2	 200
   2	 204
   2	 213
   2	 217
   2	 228
   2	 249
   3	  27
   3	  31
   3	  46
   3	  49
   3	  57
   3	  62
   3	  81
   3	  88
   3	  89
   3	  98
   3	 103
   3	 112
   3	 115
   3	 144
   3	 159
   3	 163
   3	 174
   3	 212
   3	 227
   3	 231
   3	 240
   3	 241
   3	 242
   3	 249
   4	   6
   4	  11
   4	  19
   4	  37
   4	  38
   4	  44
   4	  61
   4	  64
   4	  66
   4	  68
   4	  74
   4	  98
   4	 105
   4	 115
   4	 117
   4	 119
   4	 136
   4	 141
   4	 175
   4	 203
   4	 204
   4	 208
   4	 215
   4	 247
   5	  11
   5	  14
   5	  23
   5	  27
   5	  44
   5	  56
   5	  67
   5	  68
   5	  83
   5	  95
   5	  96
   5	 105
   5	 110
   5	 111
   5	 143
   5	 160
   5	 168
   5	 194
   5	 195
   5	 217
   5	 219
   5	 222
   5	 228
   5	 234
   5	 236
   5	 240
   5	 245
   5	 246
   5	 248
   6	   8
   6	  18
   6	  33
   6	  43
   6	  44
   6	  47
   6	  55
   6	  63
   6	  64
   6	  71
   6	 104
   6	 107
   6	 110
   6	 121
   6	 127
   6	 128
   6	 138
   6	 139
   6	 141
   6	 146
   6	 157
   6	 160
   6	 180
   6	 190
   6	 197
   6	 198
   6	 221
   6	 234
   6	 243
   7	  12
   7	  16
   7	  19
   7	  27
   7	  37
   7	  38
   7	  46
   7	  54
   7	  79
   7	  80
   7	  82
   7	  83
   7	  90
   7	 119
   7	 131
   7	 143
   7	 148
   7	 158
   7	 163
   7	 171
   7	 174
   7	 177
   7	 179
   7	 188
   7	 193
   7	 195
   7	 223
   7	 230
   7	 231
   7	 236
   7	 237
   8	  14
   8	  18
   8	  31
   8	  40
   8	  65
   8	  69
   8	  82
   8	  88
   8	  89
   8	  93
   8	  94
   8	  99
   8	 105
   8	 107
   8	 108
   8	 131
   8	 160
   8	 187
   8	 203
   8	 205
   8	 226
   8	 233
   8	 237
   8	 245
   9	  14
   9	  35
   9	  42
   9	  49
   9	  66
   9	  72
   9	  76
   9	  86
   9	 101
   9	 115
   9	 117
   9	 150
   9	 161
   9	 181
   9	 186
   9	 193
   9	 198
   9	 199
   9	 200
   9	 214
   9	 239
  10	  11
  10	  14
  10	  21
  10	  33
  10	  35
  10	  37
  10	  58
  10	  61
  10	  64
  10	  65
  10	  76
  10	  87
  10	  94
  10	 103
  10	 120
  10	 122
  10	 155
  10	 167
  10	 171
  10	 175
  10	 190
  10	 191
  10	 195
  10	 204
  10	 207
  10	 222
  11	  15
  11	  30
  11	  64
  11	  93
  11	  98
  11	 102
  11	 113
  11	 120
  11	 128
  11	 133
  11	 147
  11	 148
  11	 152
  11	 154
  11	 160
  11	 161
  11	 181
  11	 185
  11	 187
  11	 200
  11	 210
  11	 243
  12	  25
  12	  26
  12	  27
  12	  34
  12	  38
  12	  48
  12	  49
  12	  85
  12	  96
  12	  99
  12	 125
  12	 126
  12	 132
  12	 141
  12	 152
  12	 159
  12	 174
  12	 176
  12	 191
  12	 204
  12	 212
  12	 218
  12	 219
  12	 226
  13	  14
  13	  38
  13	  50
  13	  65
  13	  93
  13	 115
  13	 127
  13	 128
  13	 135
  13	 137
  13	 145
  13	 164
  13	 187
  13	 210
  13	 216
  13	 231
  13	 240
  13	 245
  14	  65
  14	  94
  14	 103
  14	 110
  14	 114
  14	 126
  14	 157
  14	 161
  14	 171
  14	 175
  14	 184
  14	 202
  14	 205
  14	 212
  14	 219
  14	 224
  15	  44
  15	  54
  15	  62
  15	  63
  15	  68
  15	  71
  15	  88
  15	  93
  15	 103
  15	 113
  15	 115
  15	 118
  15	 125
  15	 167
  15	 178
  15	 196
  15	 210
  15	 211
  15	 217
  15	 221
  15	 235
  15	 243
  16	  17
  16	  20
  16	  21
  16	  25
  16	  29
  16	  48
  16	  53
  16	  55
  16	  56
  16	  64
  16	 108
  16	 115
  16	 118
  16	 120
  16	 126
  16	 131
  16	 138
  16	 165
  16	 182
  16	 198
  16	 204
  16	 206
  16	 211
  16	 221
  16	 243
  17	  20
  17	  21
  17	  32
  17	  43
  17	  52
  17	  73
  17	  86
  17	  89
  17	 103
  17	 124
  17	 133
  17	 134
  17	 180
  17	 203
  17	 209
  17	 212
  17	 216
  17	 225
  17	 241
  18	  50
  18	  71
  18	  82
  18	  93
  18	  97
  18	 103
  18	 125
  18	 140
  18	 160
  18	 161
  18	 167
  18	 182
  18	 186
  18	 188
  18	 208
  18	 217
  18	 245
  18	 248
  19	  20
  19	  23
  19	  30
  19	  32
  19	  34
  19	  39
  19	  49
  19	  50
  19	  59
  19	 109
  19	 128
  19	 130
  19	 152
  19	 154
  19	 156
  19	 164
  19	 177
  19	 179
  19	 190
  19	 192
  19	 201
  19	 226
  19	 228
  19	 232
  19	 234
  19	 235
  19	 238
  19	 249
  20	  22
  20	  35
  20	  41
  20	  43
  20	  60
  20	  63
  20	  66
  20	 121
  20	 129
  20	 132
  20	 133
  20	 149
  20	 150
  20	 153
  20	 156
  20	 168
  20	 184
  20	 204
  20	 214
  20	 240
  21	  44
  21	  52
  21	  77
  21	  83
  21	  87
  21	  88
  21	  97
  21	 116
  21	 121
  21	 126
  21	 134
  21	 140
  21	 151
  21	 155
  21	 170
  21	 171
  21	 173
  21	 178
  21	 199
  21	 200
  21	 209
  21	 218
  21	 221
  21	 230
  21	 232
  21	 235
  21	 238
  21	 241
  21	 245
  21	 246
  22	  25
  22	  28
  22	  47
  22	  55
  22	  68
  22	  72
  22	  82
  22	  86
  22	 102
  22	 123
  22	 125
  22	 126
  22	 139
  22	 160
  22	 166
  22	 168
  22	 172
  22	 176
  22	 203
  22	 207
  22	 216
  22	 224
  22	 234
  22	 241
  23	  47
  23	  50
  23	  51
  23	  53
  23	  60
  23	  61
  23	  63
  23	  71
  23	  82
  23	  83
  23	  86
  23	  94
  23	 110
  23	 114
  23	 124
  23	 133
  23	 135
  23	 143
  23	 172
  23	 185
  23	 201
  23	 204
  23	 205
  23	 228
  23	 229
  23	 232
  23	 238
  23	 240
  23	 244
  23	 245
  24	  86
  24	 104
  24	 118
  24	 122
  24	 124
  24	 135
  24	 136
  24	 144
  24	 152
  24	 154
  24	 162
  24	 173
  24	 176
  24	 184
  24	 188
  24	 202
  24	 232
  25	  32
  25	  59
  25	  61
  25	  66
  25	  79
  25	  81
  25	  92
  25	 103
  25	 110
  25	 113
  25	 118
  25	 138
  25	 144
  25	 147
  25	 166
  25	 182
  25	 185
  25	 188
  25	 206
  25	 223
  25	 234
  25	 240
  26	  54
  26	  56
  26	  65
  26	  87
  26	  88
  26	  97
  26	 103
  26	 110
  26	 113
  26	 115
  26	 128
  26	 137
  26	 146
  26	 150
  26	 159
  26	 162
  26	 169
  26	 172
  26	 234
  26	 249
  27	  45
  27	  47
  27	  50
  27	  61
  27	  73
  27	  83
  27	  96
  27	 106
  27	 110
  27	 116
  27	 122
  27	 126
  27	 131
  27	 136
  27	 163
  27	 178
  27	 184
  27	 189
  27	 212
  27	 213
  27	 228
  27	 230
  27	 239
  27	 248
  28	  29
  28	  34
  28	  45
  28	  51
  28	  75
  28	  81
  28	  87
  28	  90
  28	  93
  28	 124
  28	 148
  28	 155
  28	 162
  28	 170
  28	 171
  28	 180
  28	 182
  28	 183
  28	 190
  28	 192
  28	 229
  28	 235
  29	  37
  29	  48
  29	  54
  29	  71
  29	 101
  29	 109
  29	 117
  29	 128
  29	 134
  29	 135
  29	 152
  29	 156
  29	 182
  29	 185
  29	 190
  29	 201
  29	 213
  29	 215
  29	 217
  29	 245
  30	  35
  30	  71
  30	  80
  30	  85
  30	 108
  30	 126
  30	 144
  30	 150
  30	 156
  30	 158
  30	 168
  30	 180
  30	 199
  30	 221
  30	 229
  30	 236
  30	 238
  30	 241
  30	 245
  31	  57
  31	  58
  31	  97
  31	  99
  31	 100
  31	 114
  31	 155
  31	 156
  31	 163
  31	 175
  31	 202
  31	 232
  31	 247
  32	  60
  32	  72
  32	  95
  32	 106
  32	 111
  32	 126
  32	 129
  32	 162
  32	 170
  32	 178
  32	 189
  32	 190
  32	 215
  32	 228
  32	 231
  32	 232
  32	 234
  32	 249
  33	  37
  33	  38
  33	  40
  33	  42
  33	  44
  33	  65
  33	  72
  33	  91
  33	 117
  33	 123
  33	 152
  33	 168
  33	 182
  33	 187
  33	 195
  33	 198
  33	 211
  33	 230
  33	 236
  33	 247
  34	  35
  34	  54
  34	  78
  34	  92
  34	  99
  34	 120
  34	 145
  34	 157
  34	 163
  34	 188
  34	 192
  34	 207
  34	 213
  34	 218
  34	 229
  34	 231
  35	  38
  35	  45
  35	  79
  35	  80
  35	  90
  35	  91
  35	  96
  35	 106
  35	 154
  35	 159
  35	 165
  35	 179
  35	 181
  35	 213
  35	 229
  35	 232
  35	 234
  35	 249
  36	  72
  36	  84
  36	  94
  36	  96
  36	 128
  36	 136
  36	 156
  36	 159
  36	 163
  36	 183
  36	 191
  36	 193
  36	 201
  36	 209
  36	 218
  36	 220
  36	 239
  36	 248
  37	  38
  37	  43
  37	  63
  37	  70
  37	  79
  37	  90
  37	  94
  37	  98
  37	 103
  37	 114
  37	 127
  37	 136
  37	 142
  37	 146
  37	 157
  37	 168
  37	 184
  37	 186
  37	 192
  37	 193
  37	 197
  37	 203
  37	 207
  37	 208
  37	 211
  37	 216
  37	 236
  38	  41
  38	  51
  38	  53
  38	  55
  38	  61
  38	  70
  38	  92
  38	  93
  38	  99
  38	 119
  38	 125
  38	 131
  38	 140
  38	 144
  38	 148
  38	 183
  38	 209
  38	 238
  38	 239
  38	 247
  39	  45
  39	  68
  39	  73
  39	  82
  39	 114
  39	 118
  39	 123
  39	 126
  39	 148
  39	 163
  39	 189
  39	 191
  39	 192
  39	 215
  39	 222
  39	 242
  40	  41
  40	  53
  40	  71
  40	  77
  40	  81
  40	  93
  40	  98
  40	 109
  40	 132
  40	 143
  40	 160
  40	 162
  40	 172
  40	 193
  40	 234
  40	 246
  41	  56
  41	  59
  41	  70
  41	  75
  41	  76
  41	  77
  41	  80
  41	 101
  41	 127
  41	 133
  41	 149
  41	 151
  41	 172
  41	 174
  41	 191
  41	 192
  41	 219
  42	  54
  42	  64
  42	  66
  42	  82
  42	  89
  42	  97
  42	  98
  42	 103
  42	 108
  42	 120
  42	 131
  42	 138
  42	 139
  42	 169
  42	 176
  42	 178
  42	 179
  42	 211
  42	 216
  42	 230
  43	  45
  43	  51
  43	  55
  43	  76
  43	  78
  43	  81
  43	  83
  43	  90
  43	  99
  43	 107
  43	 109
  43	 110
  43	 112
  43	 125
  43	 126
  43	 146
  43	 149
  43	 177
  43	 181
  43	 185
  43	 211
  43	 223
  43	 233
  43	 236
  44	  61
  44	  68
  44	  70
  44	  71
  44	  81
  44	  87
  44	  88
  44	  89
  44	 120
  44	 125
  44	 136
  44	 138
  44	 158
  44	 177
  44	 185
  44	 186
  44	 203
  44	 210
  44	 222
  44	 230
  44	 249
  45	  51
  45	  66
  45	  75
  45	  77
  45	  85
  45	  89
  45	 118
  45	 124
  45	 127
  45	 128
  45	 139
  45	 194
  45	 202
  45	 217
  45	 220
  45	 233
  45	 246
  46	  54
  46	  69
  46	  78
  46	 109
  46	 126
  46	 127
  46	 134
  46	 149
  46	 152
  46	 156
  46	 182
  46	 186
  46	 191
  46	 202
  46	 205
  46	 215
  46	 234
  46	 242
  47	  50
  47	  58
  47	  68
  47	  89
  47	 100
  47	 108
  47	 115
  47	 118
  47	 127
  47	 152
  47	 185
  47	 188
  47	 209
  47	 231
  47	 240
  47	 247
  48	  51
  48	  55
  48	  59
  48	  76
  48	 110
  48	 119
  48	 123
  48	 135
  48	 148
  48	 155
  48	 174
  48	 182
  48	 203
  48	 245
  49	  82
  49	  93
  49	  97
  49	 110
  49	 114
  49	 116
  49	 148
  49	 169
  49	 172
  49	 175
  49	 182
  49	 198
  49	 226
  49	 231
  49	 241
  50	  53
  50	  59
  50	  82
  50	  86
  50	  95
  50	 101
  50	 121
  50	 126
  50	 229
  50	 234
  51	  54
  51	  57
  51	  64
  51	  71
  51	  89
  51	 103
  51	 104
  51	 111
  51	 114
  51	 127
  51	 131
  51	 133
  51	 146
  51	 148
  51	 156
  51	 168
  51	 176
  51	 177
  51	 183
  51	 184
  51	 194
  51	 249
  52	  65
  52	  73
  52	 111
  52	 143
  52	 145
  52	 154
  52	 163
  52	 177
  52	 186
  52	 188
  52	 200
  52	 207
  52	 234
  52	 241
  52	 245
  53	  61
  53	  68
  53	  70
  53	  71
  53	  74
  53	 119
  53	 120
  53	 123
  53	 126
  53	 130
  53	 135
  53	 142
  53	 145
  53	 168
  53	 170
  53	 191
  53	 194
  53	 195
  53	 200
  53	 203
  53	 212
  53	 216
  53	 234
  54	  69
  54	  80
  54	  81
  54	  92
  54	 102
  54	 104
  54	 124
  54	 127
  54	 133
  54	 143
  54	 145
  54	 176
  54	 177
  54	 212
  54	 221
  55	  70
  55	  79
  55	  80
  55	  84
  55	 106
  55	 114
  55	 115
  55	 116
  55	 119
  55	 125
  55	 129
  55	 131
  55	 134
  55	 142
  55	 143
  55	 155
  55	 161
  55	 165
  55	 189
  55	 206
  55	 211
  55	 216
  55	 220
  55	 221
  55	 228
  55	 245
  55	 246
  55	 248
  56	  57
  56	  89
  56	  95
  56	  99
  56	 114
  56	 120
  56	 134
  56	 136
  56	 149
  56	 156
  56	 159
  56	 167
  56	 177
  56	 189
  56	 196
  56	 200
  56	 204
  56	 219
  56	 220
  56	 227
  56	 229
  56	 242
  57	  60
  57	  62
  57	  77
  57	  83
  57	  88
  57	 135
  57	 151
  57	 175
  57	 186
  57	 187
  57	 189
  57	 200
  57	 235
  57	 247
  57	 249
  58	  62
  58	  75
  58	  77
  58	  91
  58	  92
  58	  97
  58	 109
  58	 111
  58	 113
  58	 119
  58	 126
  58	 129
  58	 130
  58	 132
  58	 144
  58	 165
  58	 175
  58	 187
  58	 191
  58	 213
  58	 214
  58	 217
  58	 223
  58	 226
  58	 243
  58	 247
  59	  76
  59	  78
  59	  82
  59	  83
  59	  90
  59	  96
  59	 110
  59	 128
  59	 161
  59	 177
  59	 191
  59	 200
  59	 223
  59	 238
  59	 242
  59	 247
  60	  72
  60	  86
  60	  95
  60	 103
  60	 107
  60	 113
  60	 114
  60	 118
  60	 149
  60	 156
  60	 178
  60	 187
  60	 191
  60	 195
  60	 210
  60	 213
  60	 223
  60	 248
  61	  70
  61	  81
  61	  85
  61	  87
  61	 112
  61	 132
  61	 145
  61	 147
  61	 168
  61	 169
  61	 176
  61	 178
  61	 199
  61	 217
  61	 223
  61	 228
  61	 236
  61	 244
  62	  71
  62	  72
  62	 117
  62	 123
  62	 148
  62	 150
  62	 158
  62	 162
  62	 180
  62	 182
  62	 183
  62	 186
  62	 198
  62	 213
  62	 216
  62	 224
  62	 226
  62	 233
  62	 248
  63	  66
  63	  77
  63	  79
  63	  93
  63	 102
  63	 106
  63	 119
  63	 131
  63	 135
  63	 149
  63	 155
  63	 173
  63	 192
  63	 199
  63	 213
  63	 215
  63	 225
  63	 228
  63	 239
  63	 246
  63	 248
  63	 249
  64	  96
  64	  99
  64	 100
  64	 107
  64	 109
  64	 127
  64	 137
  64	 139
  64	 148
  64	 150
  64	 165
  64	 190
  64	 194
  64	 211
  64	 218
  64	 223
  64	 224
  64	 231
  64	 242
  64	 248
  65	  86
  65	  90
  65	  91
  65	 118
  65	 121
  65	 134
  65	 157
  65	 159
  65	 162
  65	 173
  65	 186
  65	 204
  65	 207
  65	 215
  65	 217
  65	 233
  65	 244
  65	 245
  65	 249
  66	  77
  66	  83
  66	  94
  66	  99
  66	 112
  66	 114
  66	 127
  66	 135
  66	 141
  66	 146
  66	 163
  66	 168
  66	 175
  66	 177
  66	 196
  66	 206
  66	 211
  66	 219
  66	 222
  66	 232
  66	 237
  67	  70
  67	  95
  67	 101
  67	 118
  67	 135
  67	 144
  67	 169
  67	 180
  67	 182
  67	 186
  67	 193
  67	 217
  67	 234
  67	 243
  68	  82
  68	  84
  68	  85
  68	  97
  68	  98
  68	 125
  68	 132
  68	 146
  68	 154
  68	 159
  68	 164
  68	 165
  68	 172
  68	 180
  68	 186
  68	 189
  68	 191
  68	 207
  68	 217
  68	 221
  68	 232
  68	 234
  68	 235
  68	 236
  68	 239
  68	 240
  68	 241
  68	 247
  68	 249
  69	  80
  69	 102
  69	 104
  69	 116
  69	 120
  69	 143
  69	 156
  69	 170
  69	 176
  69	 178
  69	 196
  69	 197
  69	 200
  69	 216
  69	 233
  69	 235
  69	 236
  69	 239
  69	 242
  70	  80
  70	  83
  70	  89
  70	  90
  70	 111
  70	 115
  70	 117
  70	 122
  70	 130
  70	 148
  70	 160
  70	 177
  70	 189
  70	 200
  70	 222
  70	 223
  70	 234
  71	  72
  71	  76
  71	  77
  71	  78
  71	  79
  71	  83
  71	  88
  71	  98
  71	 112
  71	 122
  71	 139
  71	 146
  71	 163
  71	 177
  71	 186
  71	 187
  71	 189
  71	 197
  71	 208
  71	 211
  71	 217
  71	 220
  71	 224
  71	 242
  72	  73
  72	  97
  72	 100
  72	 101
  72	 110
  72	 118
  72	 119
  72	 140
  72	 163
  72	 187
  72	 201
  72	 215
  72	 224
  72	 238
  72	 246
  72	 247
  72	 248
  73	  74
  73	  85
  73	  86
  73	  89
  73	 102
  73	 104
  73	 111
  73	 114
  73	 116
  73	 121
  73	 124
  73	 137
  73	 144
  73	 164
  73	 192
  73	 221
  73	 226
  73	 228
  73	 234
  73	 242
  73	 245
  73	 247
  74	  75
  74	  84
  74	  90
  74	  92
  74	  95
  74	  98
  74	 119
  74	 126
  74	 128
  74	 129
  74	 137
  74	 144
  74	 146
  74	 147
  74	 149
  74	 156
  74	 159
  74	 167
  74	 193
  74	 194
  74	 209
  74	 211
  74	 235
  75	  84
  75	  89
  75	  98
  75	 128
  75	 137
  75	 151
  75	 164
  75	 172
  75	 180
  75	 196
  75	 198
  75	 223
  75	 235
  75	 243
  75	 248
  76	  77
  76	  78
  76	  84
  76	  91
  76	 108
  76	 114
  76	 141
  76	 144
  76	 178
  76	 184
  76	 196
  76	 212
  76	 213
  76	 217
  76	 221
  76	 224
  76	 228
  76	 236
  76	 245
  76	 247
  77	  79
  77	  87
  77	 102
  77	 107
  77	 109
  77	 113
  77	 119
  77	 143
  77	 156
  77	 159
  77	 183
  77	 186
  77	 193
  77	 202
  77	 203
  77	 213
  77	 222
  77	 229
  77	 237
  77	 240
  77	 241
  78	  81
  78	  91
  78	 107
  78	 109
  78	 127
  78	 135
  78	 143
  78	 152
  78	 161
  78	 173
  78	 193
  78	 205
  78	 209
  78	 211
  78	 212
  78	 219
  79	  90
  79	 117
  79	 118
  79	 122
  79	 133
  79	 142
  79	 146
  79	 150
  79	 152
  79	 157
  79	 167
  79	 172
  79	 175
  79	 186
  79	 199
  79	 215
  79	 223
  79	 238
  79	 244
  79	 246
  79	 248
  80	  83
  80	  84
  80	  90
  80	  94
  80	  95
  80	 100
  80	 104
  80	 107
  80	 114
  80	 130
  80	 141
  80	 152
  80	 155
  80	 174
  80	 176
  80	 188
  80	 194
  80	 204
  80	 211
  80	 224
  80	 245
  81	  91
  81	  94
  81	 106
  81	 111
  81	 116
  81	 128
  81	 134
  81	 174
  81	 179
  81	 189
  81	 197
  81	 198
  81	 203
  81	 211
  81	 220
  81	 222
  81	 232
  81	 239
  82	  85
  82	  93
  82	  95
  82	 118
  82	 120
  82	 131
  82	 134
  82	 143
  82	 159
  82	 172
  82	 176
  82	 179
  82	 193
  82	 219
  82	 220
  82	 223
  82	 226
  82	 228
  82	 229
  82	 247
  83	  92
  83	  94
  83	  96
  83	 126
  83	 171
  83	 212
  83	 228
  83	 248
  84	  94
  84	 102
  84	 119
  84	 123
  84	 128
  84	 152
  84	 169
  84	 178
  84	 183
  84	 203
  84	 208
  84	 223
  84	 226
  84	 229
  84	 244
  85	  95
  85	  97
  85	 107
  85	 111
  85	 113
  85	 124
  85	 125
  85	 127
  85	 135
  85	 153
  85	 154
  85	 185
  85	 191
  85	 202
  85	 208
  85	 233
  85	 234
  85	 235
  85	 237
  85	 238
  85	 242
  85	 248
  86	  94
  86	 134
  86	 136
  86	 138
  86	 144
  86	 149
  86	 157
  86	 161
  86	 174
  86	 177
  86	 189
  86	 196
  86	 200
  86	 201
  86	 211
  86	 227
  86	 240
  86	 243
  87	  90
  87	  94
  87	  95
  87	 102
  87	 106
  87	 116
  87	 137
  87	 148
  87	 175
  87	 188
  87	 193
  87	 198
  87	 200
  87	 214
  87	 223
  87	 225
  87	 231
  88	  96
  88	  97
  88	 102
  88	 122
  88	 131
  88	 134
  88	 155
  88	 157
  88	 159
  88	 183
  88	 188
  88	 193
  88	 209
  88	 215
  88	 216
  88	 217
  88	 224
  89	  91
  89	  92
  89	 103
  89	 120
  89	 134
  89	 135
  89	 137
  89	 149
  89	 174
  89	 179
  89	 183
  89	 196
  89	 199
  89	 201
  89	 202
  89	 207
  89	 208
  89	 209
  89	 217
  89	 223
  89	 236
  89	 237
  90	 103
  90	 106
  90	 109
  90	 118
  90	 125
  90	 126
  90	 129
  90	 133
  90	 139
  90	 147
  90	 155
  90	 156
  90	 158
  90	 189
  90	 195
  90	 200
  90	 201
  90	 203
  90	 206
  90	 220
  90	 223
  90	 247
  91	  92
  91	  94
  91	 119
  91	 135
  91	 137
  91	 143
  91	 146
  91	 147
  91	 152
  91	 154
  91	 161
  91	 170
  91	 171
  91	 172
  91	 175
  91	 177
  91	 178
  91	 179
  91	 193
  91	 194
  91	 210
  91	 212
  91	 245
  91	 249
  92	  99
  92	 116
  92	 118
  92	 163
  92	 169
  92	 182
  92	 183
  92	 188
  92	 204
  92	 213
  92	 223
  92	 233
  92	 238
  92	 242
  92	 249
  93	  99
  93	 111
  93	 126
  93	 134
  93	 161
  93	 175
  93	 182
  93	 200
  93	 209
  93	 222
  93	 229
  93	 232
  93	 244
  93	 247
  94	  95
  94	  98
  94	 101
  94	 109
  94	 145
  94	 150
  94	 154
  94	 156
  94	 171
  94	 174
  94	 187
  94	 190
  94	 192
  94	 194
  94	 198
  94	 200
  94	 213
  94	 230
  94	 240
  95	 102
  95	 125
  95	 126
  95	 137
  95	 140
  95	 148
  95	 163
  95	 164
  95	 168
  95	 201
  95	 213
  95	 216
  95	 220
  95	 221
  95	 224
  95	 234
  95	 238
  95	 239
  95	 240
  95	 242
  95	 243
  95	 248
  95	 249
  96	 116
  96	 129
  96	 132
  96	 146
  96	 150
  96	 152
  96	 157
  96	 165
  96	 167
  96	 168
  96	 175
  96	 192
  96	 196
  96	 208
  96	 209
  97	 115
  97	 124
  97	 187
  97	 191
  97	 236
  98	 103
  98	 116
  98	 137
  98	 155
  98	 167
  98	 170
  98	 175
  98	 181
  98	 193
  98	 200
  98	 211
  98	 213
  98	 249
  99	 106
  99	 109
  99	 141
  99	 151
  99	 155
  99	 158
  99	 188
  99	 198
  99	 206
  99	 212
  99	 228
  99	 244
 100	 109
 100	 110
 100	 112
 100	 120
 100	 122
 100	 123
 100	 138
 100	 159
 100	 162
 100	 170
 100	 191
 100	 194
 100	 206
 100	 216
 100	 224
 100	 232
 100	 239
 101	 105
 101	 106
 101	 114
 101	 117
 101	 120
 101	 135
 101	 138
 101	 150
 101	 156
 101	 165
 101	 172
 101	 177
 101	 178
 101	 181
 101	 185
 101	 232
 102	 110
 102	 124
 102	 127
 102	 161
 102	 164
 102	 172
 102	 211
 102	 212
 102	 219
 102	 221
 102	 223
 102	 227
 102	 237
 102	 245
 103	 110
 103	 112
 103	 138
 103	 143
 103	 152
 103	 186
 103	 190
 103	 192
 103	 196
 103	 200
 103	 208
 103	 213
 103	 227
 103	 247
 104	 111
 104	 129
 104	 130
 104	 138
 104	 146
 104	 151
 104	 159
 104	 161
 104	 165
 104	 167
 104	 168
 104	 175
 104	 176
 104	 187
 104	 189
 104	 205
 104	 207
 104	 209
 104	 211
 104	 212
 104	 233
 104	 234
 104	 237
 105	 108
 105	 116
 105	 127
 105	 130
 105	 152
 105	 175
 105	 177
 105	 178
 105	 192
 105	 201
 105	 202
 105	 206
 105	 213
 105	 218
 105	 235
 105	 239
 105	 241
 105	 248
 106	 109
 106	 111
 106	 113
 106	 129
 106	 139
 106	 144
 106	 148
 106	 166
 106	 170
 106	 172
 106	 175
 106	 180
 106	 182
 106	 183
 106	 184
 106	 188
 106	 195
 106	 199
 106	 221
 106	 227
 106	 228
 106	 232
 106	 247
 107	 108
 107	 128
 107	 133
 107	 135
 107	 158
 107	 169
 107	 195
 107	 205
 107	 207
 107	 222
 107	 235
 107	 237
 107	 246
 108	 121
 108	 126
 108	 130
 108	 131
 108	 132
 108	 133
 108	 144
 108	 170
 108	 178
 108	 200
 108	 202
 108	 205
 108	 209
 108	 217
 108	 225
 108	 226
 108	 228
 108	 230
 109	 118
 109	 120
 109	 141
 109	 163
 109	 167
 109	 176
 109	 183
 109	 204
 109	 222
 109	 227
 109	 228
 109	 230
 109	 238
 109	 239
 109	 240
 110	 111
 110	 123
 110	 135
 110	 143
 110	 157
 110	 163
 110	 169
 110	 175
 110	 180
 110	 190
 110	 203
 110	 207
 110	 215
 110	 222
 110	 247
 111	 126
 111	 129
 111	 130
 111	 133
 111	 135
 111	 157
 111	 162
 111	 167
 111	 168
 111	 200
 111	 242
 111	 244
 112	 140
 112	 156
 112	 173
 112	 184
 112	 186
 112	 193
 112	 196
 112	 201
 112	 204
 112	 206
 112	 216
 112	 234
 113	 117
 113	 121
 113	 124
 113	 126
 113	 139
 113	 149
 113	 162
 113	 168
 113	 179
 113	 199
 113	 231
 113	 238
 113	 245
 114	 130
 114	 144
 114	 155
 114	 166
 114	 170
 114	 171
 114	 174
 114	 183
 114	 192
 114	 198
 114	 203
 114	 204
 114	 217
 114	 223
 114	 227
 114	 232
 115	 135
 115	 142
 115	 162
 115	 181
 115	 197
 115	 202
 115	 214
 115	 227
 115	 243
 115	 247
 116	 117
 116	 124
 116	 139
 116	 146
 116	 172
 116	 190
 116	 225
 116	 235
 116	 241
 116	 246
 117	 129
 117	 133
 117	 137
 117	 149
 117	 166
 117	 169
 117	 215
 117	 224
 117	 238
 117	 247
 118	 134
 118	 162
 118	 169
 118	 170
 118	 195
 118	 224
 118	 227
 118	 230
 118	 233
 118	 248
 119	 130
 119	 132
 119	 141
 119	 147
 119	 174
 119	 183
 119	 236
 119	 249
 120	 122
 120	 123
 120	 129
 120	 140
 120	 149
 120	 166
 120	 177
 120	 201
 120	 208
 120	 213
 120	 223
 120	 233
 120	 236
 120	 240
 121	 127
 121	 144
 121	 148
 121	 199
 121	 201
 121	 212
 121	 223
 121	 225
 121	 228
 121	 236
 121	 242
 121	 246
 122	 135
 122	 140
 122	 160
 122	 168
 122	 171
 122	 172
 122	 188
 122	 189
 122	 200
 122	 205
 122	 211
 122	 214
 122	 220
 123	 129
 123	 140
 123	 153
 123	 165
 123	 168
 123	 170
 123	 182
 123	 190
 123	 199
 123	 200
 123	 205
 123	 212
 123	 229
 123	 233
 123	 242
 124	 128
 124	 132
 124	 137
 124	 180
 124	 193
 124	 196
 124	 227
 124	 231
 124	 233
 124	 241
 125	 127
 125	 142
 125	 177
 125	 195
 125	 205
 125	 207
 125	 216
 125	 223
 125	 227
 125	 234
 125	 239
 126	 138
 126	 149
 126	 160
 126	 176
 126	 177
 126	 204
 126	 226
 126	 227
 126	 228
 126	 237
 126	 241
 127	 128
 127	 157
 127	 166
 127	 173
 127	 191
 127	 197
 127	 227
 127	 234
 128	 162
 128	 168
 128	 175
 128	 180
 128	 186
 128	 192
 128	 199
 128	 230
 128	 239
 128	 244
 128	 247
 129	 148
 129	 150
 129	 153
 129	 157
 129	 163
 129	 170
 129	 178
 129	 181
 129	 189
 129	 222
 129	 226
 129	 234
 129	 244
 130	 135
 130	 138
 130	 139
 130	 158
 130	 161
 130	 165
 130	 166
 130	 173
 130	 177
 130	 181
 130	 185
 130	 188
 130	 192
 130	 199
 130	 229
 130	 241
 130	 247
 130	 248
 131	 137
 131	 142
 131	 147
 131	 185
 131	 192
 131	 195
 131	 211
 131	 234
 132	 147
 132	 153
 132	 157
 132	 167
 132	 168
 132	 171
 132	 185
 132	 193
 132	 198
 132	 203
 132	 212
 132	 220
 132	 230
 133	 144
 133	 161
 133	 164
 133	 167
 133	 175
 133	 178
 133	 189
 133	 220
 133	 223
 133	 226
 133	 240
 133	 243
 134	 139
 134	 142
 134	 150
 134	 155
 134	 157
 134	 163
 134	 166
 134	 168
 134	 188
 134	 189
 134	 202
 134	 204
 134	 205
 134	 206
 134	 227
 134	 243
 135	 139
 135	 140
 135	 148
 135	 150
 135	 176
 135	 185
 135	 195
 135	 217
 135	 220
 135	 235
 135	 236
 135	 242
 135	 244
 136	 152
 136	 166
 136	 178
 136	 192
 136	 199
 136	 202
 136	 208
 136	 213
 136	 223
 136	 232
 136	 235
 136	 241
 136	 248
 137	 139
 137	 141
 137	 153
 137	 156
 137	 161
 137	 167
 137	 187
 137	 190
 137	 191
 137	 202
 137	 205
 137	 220
 137	 228
 137	 230
 137	 239
 137	 242
 138	 144
 138	 153
 138	 168
 138	 181
 138	 191
 138	 207
 138	 209
 138	 211
 138	 212
 138	 214
 138	 216
 138	 221
 138	 223
 138	 225
 138	 226
 138	 231
 138	 232
 138	 235
 138	 236
 139	 159
 139	 164
 139	 175
 139	 184
 139	 188
 139	 192
 139	 204
 139	 213
 139	 226
 139	 239
 139	 243
 140	 145
 140	 155
 140	 165
 140	 172
 140	 174
 140	 202
 140	 216
 140	 227
 140	 235
 140	 238
 141	 159
 141	 161
 141	 164
 141	 170
 141	 177
 141	 178
 141	 186
 141	 195
 141	 208
 141	 215
 141	 217
 141	 218
 141	 223
 141	 225
 141	 226
 141	 231
 141	 234
 141	 242
 141	 245
 142	 148
 142	 156
 142	 178
 142	 183
 142	 193
 142	 195
 142	 209
 142	 210
 142	 212
 142	 220
 142	 224
 142	 225
 142	 228
 142	 245
 142	 246
 143	 147
 143	 157
 143	 171
 143	 174
 143	 178
 143	 185
 143	 186
 143	 194
 143	 195
 143	 219
 143	 228
 143	 229
 143	 239
 144	 157
 144	 206
 144	 211
 144	 217
 144	 218
 144	 245
 144	 246
 145	 156
 145	 157
 145	 172
 145	 180
 145	 182
 145	 185
 145	 195
 145	 200
 145	 214
 145	 226
 145	 228
 145	 240
 146	 155
 146	 156
 146	 162
 146	 164
 146	 170
 146	 175
 146	 179
 146	 185
 146	 190
 146	 198
 146	 210
 146	 235
 146	 241
 147	 154
 147	 171
 147	 184
 147	 197
 147	 208
 147	 222
 147	 231
 147	 237
 147	 238
 148	 158
 148	 184
 148	 186
 148	 204
 148	 219
 148	 230
 148	 236
 149	 151
 149	 163
 149	 169
 149	 171
 149	 182
 149	 187
 149	 210
 149	 233
 150	 157
 150	 158
 150	 177
 150	 191
 150	 194
 150	 204
 150	 209
 150	 211
 150	 220
 151	 157
 151	 186
 151	 212
 151	 236
 151	 248
 152	 161
 152	 162
 152	 164
 152	 170
 152	 200
 152	 224
 152	 242
 152	 248
 153	 157
 153	 170
 153	 173
 153	 180
 153	 198
 153	 202
 153	 205
 153	 211
 153	 224
 153	 235
 153	 239
 153	 245
 153	 247
 154	 169
 154	 179
 154	 182
 154	 199
 154	 205
 154	 206
 154	 220
 154	 221
 154	 222
 154	 245
 154	 249
 155	 162
 155	 203
 155	 216
 155	 229
 155	 247
 156	 209
 156	 213
 156	 215
 156	 217
 156	 238
 156	 247
 157	 160
 157	 167
 157	 170
 157	 179
 157	 180
 157	 184
 157	 187
 157	 191
 157	 193
 157	 204
 157	 233
 158	 180
 158	 182
 158	 236
 158	 243
 158	 248
 159	 164
 159	 179
 159	 195
 159	 228
 159	 232
 159	 233
 159	 241
 160	 170
 160	 183
 160	 189
 160	 193
 160	 210
 160	 211
 160	 218
 161	 165
 161	 168
 161	 169
 161	 172
 161	 173
 161	 183
 161	 199
 162	 172
 162	 185
 162	 208
 162	 229
 162	 235
 162	 240
 163	 176
 163	 195
 163	 207
 163	 214
 163	 227
 163	 231
 163	 233
 163	 241
 164	 166
 164	 169
 164	 178
 164	 189
 164	 193
 164	 197
 164	 231
 164	 241
 164	 242
 164	 243
 164	 245
 165	 181
 166	 180
 166	 198
 166	 204
 166	 206
 166	 207
 166	 219
 166	 223
 166	 238
 167	 168
 167	 209
 167	 210
 167	 211
 167	 213
 167	 236
 168	 175
 168	 179
 168	 194
 168	 217
 168	 219
 168	 228
 168	 236
 169	 185
 169	 192
 169	 199
 169	 207
 169	 220
 169	 241
 169	 243
 170	 179
 170	 189
 170	 213
 170	 224
 170	 230
 170	 242
 171	 178
 171	 185
 171	 188
 171	 190
 171	 242
 172	 182
 172	 188
 172	 199
 172	 211
 172	 225
 172	 228
 172	 238
 173	 176
 173	 190
 173	 222
 173	 227
 174	 187
 174	 189
 174	 192
 174	 200
 174	 202
 174	 204
 174	 213
 174	 221
 174	 247
 175	 188
 175	 198
 175	 205
 175	 210
 175	 223
 175	 236
 175	 243
 175	 249
 176	 178
 176	 180
 176	 183
 176	 200
 176	 212
 176	 221
 176	 223
 176	 235
 176	 247
 177	 189
 177	 212
 177	 215
 177	 239
 177	 240
 177	 247
 178	 189
 178	 202
 178	 203
 178	 204
 178	 235
 178	 239
 178	 244
 178	 246
 179	 180
 179	 194
 179	 212
 179	 217
 179	 220
 179	 236
 179	 239
 179	 240
 179	 242
 180	 191
 180	 195
 180	 204
 180	 206
 180	 207
 180	 225
 180	 227
 180	 231
 180	 240
 181	 183
 181	 197
 181	 220
 181	 233
 181	 242
 181	 247
 182	 183
 182	 202
 182	 203
 182	 205
 182	 207
 182	 214
 182	 236
 183	 189
 183	 191
 183	 192
 183	 205
 183	 209
 183	 213
 183	 228
 183	 231
 183	 232
 183	 243
 184	 186
 184	 209
 184	 215
 184	 217
 184	 245
 185	 190
 185	 193
 185	 194
 185	 204
 185	 208
 185	 223
 185	 228
 185	 244
 185	 246
 185	 248
 186	 189
 186	 198
 186	 203
 186	 219
 186	 226
 186	 241
 186	 249
 187	 193
 187	 205
 187	 226
 187	 247
 188	 199
 188	 201
 188	 220
 188	 227
 188	 230
 188	 242
 189	 196
 189	 212
 189	 217
 189	 223
 189	 229
 190	 194
 190	 196
 190	 200
 190	 215
 190	 220
 190	 229
 190	 234
 190	 236
 190	 239
 190	 243
 190	 245
 191	 194
 191	 195
 191	 196
 191	 207
 191	 233
 191	 236
 191	 237
 191	 241
 191	 248
 192	 224
 192	 225
 192	 230
 192	 238
 192	 242
 192	 245
 193	 207
 193	 228
 193	 245
 194	 214
 194	 245
 195	 198
 195	 203
 195	 221
 195	 223
 195	 236
 195	 239
 195	 243
 195	 246
 196	 204
 196	 236
 196	 238
 196	 241
 196	 245
 196	 246
 196	 247
 197	 220
 197	 224
 197	 247
 198	 217
 198	 241
 198	 246
 199	 237
 200	 210
 200	 216
 200	 226
 200	 246
 201	 210
 201	 214
 201	 228
 201	 229
 201	 238
 202	 225
 202	 236
 202	 245
 203	 222
 203	 227
 203	 232
 203	 244
 203	 247
 203	 248
 204	 217
 204	 220
 204	 224
 204	 244
 204	 247
 205	 210
 205	 216
 205	 218
 205	 222
 205	 225
 205	 229
 205	 232
 205	 237
 205	 239
 205	 245
 206	 223
 206	 227
 206	 244
 207	 210
 207	 227
 207	 233
 207	 238
 207	 245
 208	 217
 208	 227
 208	 247
 209	 222
 209	 228
 209	 237
 209	 238
 210	 213
 210	 214
 211	 214
 211	 231
 211	 241
 211	 249
 212	 213
 212	 220
 212	 233
 212	 237
 213	 235
 213	 245
 213	 246
 214	 227
 214	 228
 214	 234
 215	 226
 215	 237
 215	 248
 216	 221
 216	 225
 216	 229
 217	 221
 217	 240
 218	 241
 219	 233
 219	 244
 219	 249
 220	 223
 220	 232
 221	 222
 221	 228
 221	 229
 222	 238
 222	 244
 222	 246
 223	 239
 223	 240
 223	 244
 223	 248
 224	 227
 224	 228
 224	 229
 224	 234
 224	 238
 224	 242
 225	 232
 225	 243
 225	 245
 226	 228
 226	 232
 226	 233
 227	 233
 227	 237
 228	 235
 228	 242
 228	 246
 229	 236
 229	 239
 229	 240
 229	 244
 229	 247
 229	 248
 230	 231
 230	 235
 231	 240
 231	 244
 231	 245
 231	 246
 232	 248
 236	 243
 236	 244
 238	 244
 239	 242
 239	 244
 241	 247
 242	 249
 244	 245
 244	 249
 245	 246
 245	 249
 246	 247
;
